50
4516

389 732
568 137
176 923
463 329
351 497
790 384
446 952
240 40
612 786
472 575
312 968
592 167
709 753
748 845
415 249
919 111
241 790
903 186
742 856
737 362
403 77
768 27
300 626
187 338
385 760
955 541
964 698
420 327
576 345
12 262
870 473
22 136
388 521
678 120
940 414
680 449
596 106
192 428
62 805
524 875
420 498
595 453
50 638
106 442
438 183
330 313
323 682
768 990
953 495
109 264
